language Essence 1.3

letting costTC be
        function((1, 1) --> 7, (1, 2) --> 10, (1, 3) --> 3, (1, 4) --> 8, (1, 5) --> 10, (1, 6) --> 8, (2, 1) --> 3,
                 (2, 2) --> 3, (2, 3) --> 8, (2, 4) --> 6, (2, 5) --> 9, (2, 6) --> 2, (3, 1) --> 9, (3, 2) --> 10,
                 (3, 3) --> 8, (3, 4) --> 3, (3, 5) --> 6, (3, 6) --> 9, (4, 1) --> 1, (4, 2) --> 3, (4, 3) --> 1,
                 (4, 4) --> 10, (4, 5) --> 10, (4, 6) --> 6, (5, 1) --> 7, (5, 2) --> 1, (5, 3) --> 3, (5, 4) --> 9,
                 (5, 5) --> 1, (5, 6) --> 5, (6, 1) --> 1, (6, 2) --> 8, (6, 3) --> 5, (6, 4) --> 10, (6, 5) --> 10,
                 (6, 6) --> 4, (7, 1) --> 10, (7, 2) --> 8, (7, 3) --> 3, (7, 4) --> 10, (7, 5) --> 9, (7, 6) --> 5,
                 (8, 1) --> 3, (8, 2) --> 9, (8, 3) --> 6, (8, 4) --> 8, (8, 5) --> 1, (8, 6) --> 5, (9, 1) --> 1,
                 (9, 2) --> 1, (9, 3) --> 9, (9, 4) --> 3, (9, 5) --> 6, (9, 6) --> 9, (10, 1) --> 6, (10, 2) --> 6,
                 (10, 3) --> 4, (10, 4) --> 6, (10, 5) --> 2, (10, 6) --> 9, (11, 1) --> 10, (11, 2) --> 10,
                 (11, 3) --> 6, (11, 4) --> 2, (11, 5) --> 2, (11, 6) --> 8, (12, 1) --> 9, (12, 2) --> 2,
                 (12, 3) --> 8, (12, 4) --> 6, (12, 5) --> 3, (12, 6) --> 6, (13, 1) --> 6, (13, 2) --> 2,
                 (13, 3) --> 10, (13, 4) --> 4, (13, 5) --> 8, (13, 6) --> 6)
letting costWT be
        function((1, 1) --> 2, (1, 2) --> 1, (1, 3) --> 1, (1, 4) --> 1, (1, 5) --> 1, (1, 6) --> 2, (1, 7) --> 1,
                 (1, 8) --> 2, (1, 9) --> 2, (1, 10) --> 1, (1, 11) --> 1, (1, 12) --> 2, (1, 13) --> 2, (2, 1) --> 1,
                 (2, 2) --> 2, (2, 3) --> 1, (2, 4) --> 1, (2, 5) --> 2, (2, 6) --> 2, (2, 7) --> 1, (2, 8) --> 2,
                 (2, 9) --> 2, (2, 10) --> 2, (2, 11) --> 2, (2, 12) --> 2, (2, 13) --> 2, (3, 1) --> 1, (3, 2) --> 2,
                 (3, 3) --> 1, (3, 4) --> 2, (3, 5) --> 2, (3, 6) --> 2, (3, 7) --> 1, (3, 8) --> 1, (3, 9) --> 1,
                 (3, 10) --> 2, (3, 11) --> 1, (3, 12) --> 1, (3, 13) --> 2, (4, 1) --> 1, (4, 2) --> 2, (4, 3) --> 2,
                 (4, 4) --> 2, (4, 5) --> 2, (4, 6) --> 2, (4, 7) --> 2, (4, 8) --> 2, (4, 9) --> 2, (4, 10) --> 2,
                 (4, 11) --> 2, (4, 12) --> 1, (4, 13) --> 2, (5, 1) --> 1, (5, 2) --> 1, (5, 3) --> 1, (5, 4) --> 2,
                 (5, 5) --> 2, (5, 6) --> 2, (5, 7) --> 2, (5, 8) --> 2, (5, 9) --> 2, (5, 10) --> 1, (5, 11) --> 1,
                 (5, 12) --> 2, (5, 13) --> 1, (6, 1) --> 1, (6, 2) --> 1, (6, 3) --> 2, (6, 4) --> 2, (6, 5) --> 1,
                 (6, 6) --> 2, (6, 7) --> 1, (6, 8) --> 2, (6, 9) --> 2, (6, 10) --> 1, (6, 11) --> 1, (6, 12) --> 1,
                 (6, 13) --> 2, (7, 1) --> 1, (7, 2) --> 1, (7, 3) --> 2, (7, 4) --> 2, (7, 5) --> 1, (7, 6) --> 1,
                 (7, 7) --> 2, (7, 8) --> 1, (7, 9) --> 1, (7, 10) --> 2, (7, 11) --> 1, (7, 12) --> 1, (7, 13) --> 2,
                 (8, 1) --> 2, (8, 2) --> 1, (8, 3) --> 2, (8, 4) --> 1, (8, 5) --> 1, (8, 6) --> 1, (8, 7) --> 1,
                 (8, 8) --> 1, (8, 9) --> 2, (8, 10) --> 1, (8, 11) --> 1, (8, 12) --> 1, (8, 13) --> 1, (9, 1) --> 2,
                 (9, 2) --> 2, (9, 3) --> 1, (9, 4) --> 1, (9, 5) --> 1, (9, 6) --> 1, (9, 7) --> 1, (9, 8) --> 1,
                 (9, 9) --> 2, (9, 10) --> 2, (9, 11) --> 1, (9, 12) --> 2, (9, 13) --> 1, (10, 1) --> 2, (10, 2) --> 1,
                 (10, 3) --> 2, (10, 4) --> 1, (10, 5) --> 1, (10, 6) --> 2, (10, 7) --> 1, (10, 8) --> 1,
                 (10, 9) --> 1, (10, 10) --> 2, (10, 11) --> 1, (10, 12) --> 1, (10, 13) --> 2, (11, 1) --> 1,
                 (11, 2) --> 1, (11, 3) --> 1, (11, 4) --> 2, (11, 5) --> 1, (11, 6) --> 1, (11, 7) --> 2,
                 (11, 8) --> 1, (11, 9) --> 2, (11, 10) --> 1, (11, 11) --> 1, (11, 12) --> 2, (11, 13) --> 2,
                 (12, 1) --> 1, (12, 2) --> 2, (12, 3) --> 2, (12, 4) --> 1, (12, 5) --> 1, (12, 6) --> 1,
                 (12, 7) --> 2, (12, 8) --> 2, (12, 9) --> 2, (12, 10) --> 1, (12, 11) --> 1, (12, 12) --> 1,
                 (12, 13) --> 2, (13, 1) --> 2, (13, 2) --> 2, (13, 3) --> 1, (13, 4) --> 1, (13, 5) --> 2,
                 (13, 6) --> 2, (13, 7) --> 1, (13, 8) --> 1, (13, 9) --> 2, (13, 10) --> 1, (13, 11) --> 1,
                 (13, 12) --> 2, (13, 13) --> 1, (14, 1) --> 2, (14, 2) --> 2, (14, 3) --> 1, (14, 4) --> 2,
                 (14, 5) --> 1, (14, 6) --> 2, (14, 7) --> 2, (14, 8) --> 2, (14, 9) --> 1, (14, 10) --> 2,
                 (14, 11) --> 1, (14, 12) --> 1, (14, 13) --> 2, (15, 1) --> 1, (15, 2) --> 2, (15, 3) --> 2,
                 (15, 4) --> 2, (15, 5) --> 2, (15, 6) --> 2, (15, 7) --> 2, (15, 8) --> 2, (15, 9) --> 2,
                 (15, 10) --> 1, (15, 11) --> 1, (15, 12) --> 2, (15, 13) --> 1, (16, 1) --> 1, (16, 2) --> 2,
                 (16, 3) --> 1, (16, 4) --> 2, (16, 5) --> 1, (16, 6) --> 2, (16, 7) --> 1, (16, 8) --> 1,
                 (16, 9) --> 1, (16, 10) --> 2, (16, 11) --> 1, (16, 12) --> 1, (16, 13) --> 1, (17, 1) --> 1,
                 (17, 2) --> 1, (17, 3) --> 1, (17, 4) --> 2, (17, 5) --> 1, (17, 6) --> 2, (17, 7) --> 1,
                 (17, 8) --> 2, (17, 9) --> 1, (17, 10) --> 2, (17, 11) --> 2, (17, 12) --> 2, (17, 13) --> 2,
                 (18, 1) --> 1, (18, 2) --> 1, (18, 3) --> 1, (18, 4) --> 1, (18, 5) --> 1, (18, 6) --> 1,
                 (18, 7) --> 2, (18, 8) --> 1, (18, 9) --> 1, (18, 10) --> 1, (18, 11) --> 2, (18, 12) --> 2,
                 (18, 13) --> 2, (19, 1) --> 1, (19, 2) --> 1, (19, 3) --> 1, (19, 4) --> 2, (19, 5) --> 2,
                 (19, 6) --> 1, (19, 7) --> 2, (19, 8) --> 2, (19, 9) --> 1, (19, 10) --> 1, (19, 11) --> 1,
                 (19, 12) --> 1, (19, 13) --> 2, (20, 1) --> 2, (20, 2) --> 2, (20, 3) --> 1, (20, 4) --> 1,
                 (20, 5) --> 2, (20, 6) --> 2, (20, 7) --> 2, (20, 8) --> 1, (20, 9) --> 1, (20, 10) --> 1,
                 (20, 11) --> 1, (20, 12) --> 2, (20, 13) --> 2, (21, 1) --> 2, (21, 2) --> 1, (21, 3) --> 2,
                 (21, 4) --> 2, (21, 5) --> 1, (21, 6) --> 1, (21, 7) --> 1, (21, 8) --> 2, (21, 9) --> 2,
                 (21, 10) --> 1, (21, 11) --> 2, (21, 12) --> 2, (21, 13) --> 2, (22, 1) --> 1, (22, 2) --> 2,
                 (22, 3) --> 1, (22, 4) --> 2, (22, 5) --> 2, (22, 6) --> 1, (22, 7) --> 1, (22, 8) --> 1,
                 (22, 9) --> 1, (22, 10) --> 1, (22, 11) --> 2, (22, 12) --> 2, (22, 13) --> 1, (23, 1) --> 1,
                 (23, 2) --> 1, (23, 3) --> 1, (23, 4) --> 1, (23, 5) --> 2, (23, 6) --> 2, (23, 7) --> 1,
                 (23, 8) --> 1, (23, 9) --> 2, (23, 10) --> 1, (23, 11) --> 2, (23, 12) --> 1, (23, 13) --> 2,
                 (24, 1) --> 2, (24, 2) --> 2, (24, 3) --> 2, (24, 4) --> 2, (24, 5) --> 2, (24, 6) --> 2,
                 (24, 7) --> 1, (24, 8) --> 1, (24, 9) --> 1, (24, 10) --> 1, (24, 11) --> 1, (24, 12) --> 2,
                 (24, 13) --> 1, (25, 1) --> 1, (25, 2) --> 2, (25, 3) --> 1, (25, 4) --> 2, (25, 5) --> 1,
                 (25, 6) --> 2, (25, 7) --> 2, (25, 8) --> 2, (25, 9) --> 1, (25, 10) --> 2, (25, 11) --> 1,
                 (25, 12) --> 1, (25, 13) --> 2, (26, 1) --> 1, (26, 2) --> 2, (26, 3) --> 2, (26, 4) --> 2,
                 (26, 5) --> 1, (26, 6) --> 2, (26, 7) --> 2, (26, 8) --> 1, (26, 9) --> 1, (26, 10) --> 2,
                 (26, 11) --> 2, (26, 12) --> 2, (26, 13) --> 2, (27, 1) --> 1, (27, 2) --> 2, (27, 3) --> 2,
                 (27, 4) --> 2, (27, 5) --> 1, (27, 6) --> 1, (27, 7) --> 2, (27, 8) --> 1, (27, 9) --> 2,
                 (27, 10) --> 1, (27, 11) --> 1, (27, 12) --> 1, (27, 13) --> 1, (28, 1) --> 2, (28, 2) --> 1,
                 (28, 3) --> 2, (28, 4) --> 1, (28, 5) --> 1, (28, 6) --> 2, (28, 7) --> 1, (28, 8) --> 2,
                 (28, 9) --> 1, (28, 10) --> 2, (28, 11) --> 2, (28, 12) --> 2, (28, 13) --> 2, (29, 1) --> 1,
                 (29, 2) --> 1, (29, 3) --> 1, (29, 4) --> 1, (29, 5) --> 1, (29, 6) --> 2, (29, 7) --> 1,
                 (29, 8) --> 1, (29, 9) --> 1, (29, 10) --> 2, (29, 11) --> 1, (29, 12) --> 1, (29, 13) --> 2,
                 (30, 1) --> 2, (30, 2) --> 2, (30, 3) --> 2, (30, 4) --> 2, (30, 5) --> 2, (30, 6) --> 1,
                 (30, 7) --> 1, (30, 8) --> 1, (30, 9) --> 1, (30, 10) --> 2, (30, 11) --> 1, (30, 12) --> 2,
                 (30, 13) --> 1, (31, 1) --> 1, (31, 2) --> 2, (31, 3) --> 2, (31, 4) --> 1, (31, 5) --> 1,
                 (31, 6) --> 2, (31, 7) --> 2, (31, 8) --> 1, (31, 9) --> 1, (31, 10) --> 2, (31, 11) --> 2,
                 (31, 12) --> 2, (31, 13) --> 2, (32, 1) --> 1, (32, 2) --> 1, (32, 3) --> 1, (32, 4) --> 1,
                 (32, 5) --> 1, (32, 6) --> 1, (32, 7) --> 2, (32, 8) --> 1, (32, 9) --> 2, (32, 10) --> 2,
                 (32, 11) --> 1, (32, 12) --> 1, (32, 13) --> 2, (33, 1) --> 2, (33, 2) --> 2, (33, 3) --> 1,
                 (33, 4) --> 2, (33, 5) --> 1, (33, 6) --> 1, (33, 7) --> 2, (33, 8) --> 1, (33, 9) --> 2,
                 (33, 10) --> 2, (33, 11) --> 1, (33, 12) --> 2, (33, 13) --> 1, (34, 1) --> 1, (34, 2) --> 1,
                 (34, 3) --> 2, (34, 4) --> 1, (34, 5) --> 1, (34, 6) --> 1, (34, 7) --> 1, (34, 8) --> 1,
                 (34, 9) --> 2, (34, 10) --> 2, (34, 11) --> 1, (34, 12) --> 2, (34, 13) --> 1, (35, 1) --> 2,
                 (35, 2) --> 1, (35, 3) --> 1, (35, 4) --> 2, (35, 5) --> 2, (35, 6) --> 1, (35, 7) --> 1,
                 (35, 8) --> 2, (35, 9) --> 1, (35, 10) --> 2, (35, 11) --> 1, (35, 12) --> 2, (35, 13) --> 2,
                 (36, 1) --> 2, (36, 2) --> 2, (36, 3) --> 2, (36, 4) --> 2, (36, 5) --> 1, (36, 6) --> 1,
                 (36, 7) --> 2, (36, 8) --> 1, (36, 9) --> 2, (36, 10) --> 1, (36, 11) --> 2, (36, 12) --> 2,
                 (36, 13) --> 2, (37, 1) --> 1, (37, 2) --> 1, (37, 3) --> 2, (37, 4) --> 2, (37, 5) --> 1,
                 (37, 6) --> 1, (37, 7) --> 2, (37, 8) --> 2, (37, 9) --> 1, (37, 10) --> 1, (37, 11) --> 2,
                 (37, 12) --> 1, (37, 13) --> 1, (38, 1) --> 1, (38, 2) --> 1, (38, 3) --> 2, (38, 4) --> 1,
                 (38, 5) --> 2, (38, 6) --> 1, (38, 7) --> 1, (38, 8) --> 2, (38, 9) --> 2, (38, 10) --> 1,
                 (38, 11) --> 1, (38, 12) --> 1, (38, 13) --> 2, (39, 1) --> 2, (39, 2) --> 1, (39, 3) --> 2,
                 (39, 4) --> 2, (39, 5) --> 2, (39, 6) --> 1, (39, 7) --> 2, (39, 8) --> 1, (39, 9) --> 2,
                 (39, 10) --> 2, (39, 11) --> 1, (39, 12) --> 2, (39, 13) --> 1)
letting demand be function(1 --> 9, 2 --> 9, 3 --> 9, 4 --> 9, 5 --> 9, 6 --> 9)
letting maxCost be 26
letting n_customer be 6
letting n_transshipment be 13
letting n_warehouses be 39
letting stock be
        function(1 --> 4, 2 --> 5, 3 --> 9, 4 --> 7, 5 --> 6, 6 --> 4, 7 --> 4, 8 --> 8, 9 --> 9, 10 --> 5, 11 --> 6,
                 12 --> 3, 13 --> 7, 14 --> 7, 15 --> 9, 16 --> 6, 17 --> 3, 18 --> 6, 19 --> 5, 20 --> 6, 21 --> 4,
                 22 --> 4, 23 --> 3, 24 --> 4, 25 --> 8, 26 --> 7, 27 --> 4, 28 --> 4, 29 --> 5, 30 --> 9, 31 --> 7,
                 32 --> 6, 33 --> 5, 34 --> 8, 35 --> 4, 36 --> 9, 37 --> 5, 38 --> 8, 39 --> 4)
